&CONTROL
  calculation = 'vc-relax',
  prefix = 'AlF3',
  outdir = './tmp',
  pseudo_dir = '../../Pseudo',
  verbosity = 'high',
  tprnfor = .true.,
  tstress = .true.,
/

&SYSTEM
  ibrav = 0,
  nat = 24,
  ntyp = 2,
  ecutwfc = 90.0,
  ecutrho = 720.0,
  occupations = 'fixed',
/

&ELECTRONS
  conv_thr = 1.0d-8,
  mixing_beta = 0.7,
/

&IONS
/

&CELL
  cell_dynamics = 'bfgs',
  press_conv_thr = 0.5,
  cell_factor = 2.0,
/

ATOMIC_SPECIES
  Al 26.981538 Al.pbe-n-kjpaw_psl.1.0.0.UPF
  F  18.998403 F.pbe-n-kjpaw_psl.1.0.0.UPF

CELL_PARAMETERS angstrom
  4.93476100000000 0.00000000000000 0.00000000000000
 -2.46738050000000 4.27362838760470 0.00000000000000
  0.00000000000000 0.00000000000000 12.37943900000000

ATOMIC_POSITIONS crystal
Al 0.000000 0.000000 0.000000
Al 0.000000 0.000000 0.500000
Al 0.666667 0.333333 0.333333
Al 0.666667 0.333333 0.833333
Al 0.333333 0.666667 0.666667
Al 0.333333 0.666667 0.166667
F 0.425210 0.000000 0.250000
F 0.000000 0.425210 0.250000
F 0.574790 0.574790 0.250000
F 0.574790 0.000000 0.750000
F 0.000000 0.574790 0.750000
F 0.425210 0.425210 0.750000
F 0.091877 0.333333 0.583333
F 0.666667 0.758543 0.583333
F 0.241457 0.908123 0.583333
F 0.241457 0.333333 0.083333
F 0.666667 0.908123 0.083333
F 0.091877 0.758543 0.083333
F 0.758543 0.666667 0.916667
F 0.333333 0.091877 0.916667
F 0.908123 0.241457 0.916667
F 0.908123 0.666667 0.416667
F 0.333333 0.241457 0.416667
F 0.758543 0.091877 0.416667

K_POINTS automatic
4 4 4 1 1 1
