&CONTROL
  calculation = 'scf',
  prefix = 'AlF3',
  outdir = './tmp',
  pseudo_dir = '../../Pseudo',
  verbosity = 'high',
/

&SYSTEM
  ibrav = 0,
  nat = 24,
  ntyp = 2,
  ecutwfc = 90.0,
  ecutrho = 720.0,
  occupations = 'fixed',
/

&ELECTRONS
  conv_thr = 1.0d-8,
  mixing_beta = 0.7,
/

ATOMIC_SPECIES
  Al 26.981538 Al.pbe-n-kjpaw_psl.1.0.0.UPF
  F 18.998403 F.pbe-n-kjpaw_psl.1.0.0.UPF

CELL_PARAMETERS angstrom
4.984108610000 0.000000000000 0.000000000000
-2.467380500000 4.273628387605 0.000000000000
0.000000000000 0.000000000000 12.379439000000

ATOMIC_POSITIONS crystal
Al 0.000000 0.000000 0.000000
Al 0.000000 0.000000 0.500000
Al 0.666667 0.333333 0.333333
Al 0.666667 0.333333 0.833333
Al 0.333333 0.666667 0.666667
Al 0.333333 0.666667 0.166667
F 0.425210 0.000000 0.250000
F 0.000000 0.425210 0.250000
F 0.574790 0.574790 0.250000
F 0.574790 0.000000 0.750000
F 0.000000 0.574790 0.750000
F 0.425210 0.425210 0.750000
F 0.091877 0.333333 0.583333
F 0.666667 0.758543 0.583333
F 0.241457 0.908123 0.583333
F 0.241457 0.333333 0.083333
F 0.666667 0.908123 0.083333
F 0.091877 0.758543 0.083333
F 0.758543 0.666667 0.916667
F 0.333333 0.091877 0.916667
F 0.908123 0.241457 0.916667
F 0.908123 0.666667 0.416667
F 0.333333 0.241457 0.416667
F 0.758543 0.091877 0.416667
K_POINTS automatic
4 4 4 1 1 1
