&CONTROL
  calculation = 'scf',
  prefix = 'AlF3',
  outdir = './tmp',
  pseudo_dir = '../../Pseudo',
  verbosity = 'high',
/

&SYSTEM
  ibrav = 0,
  nat = 24,
  ntyp = 2,
  ecutwfc = 30.0,
  ecutrho = 240.0,
  occupations = 'fixed',
/

&ELECTRONS
  conv_thr = 1.0d-8,
  mixing_beta = 0.7,
/

ATOMIC_SPECIES
  Al 26.981538 Al.pbe-n-kjpaw_psl.1.0.0.UPF
  F 18.998403 F.pbe-n-kjpaw_psl.1.0.0.UPF

CELL_PARAMETERS angstrom
4.93476100000000 0.00000000000000 0.00000000000000
-2.46738050000000 4.27362838760470 0.00000000000000
0.00000000000000 0.00000000000000 12.37943900000000

ATOMIC_POSITIONS angstrom
Al 0.0000000000 0.0000000000 0.0000000000  
Al 0.0000000000 0.0000000000 6.1897195000  
Al 2.4673805000 1.4245427959 4.1264796667  
Al 2.4673805000 1.4245427959 10.3161991667  
Al 0.0000000000 2.8490855917 8.2529593333  
Al 0.0000000000 2.8490855917 2.0632398333  
F 2.0983097248 0.0000000000 3.0948597500  
F -1.0491548624 1.8171895267 3.0948597500  
F 1.4182256376 2.4564388609 3.0948597500  
F 2.8364512752 0.0000000000 9.2845792500  
F -1.4182256376 2.4564388609 9.2845792500  
F 1.0491548624 1.8171895267 9.2845792500  
F -0.3690707752 1.4245427959 7.2213394167  
F 1.4182256376 3.2417323226 7.2213394167  
F -1.0491548624 3.8809816568 7.2213394167  
F 0.3690707752 1.4245427959 1.0316199167  
F 1.0491548624 3.8809816568 1.0316199167  
F -1.4182256376 3.2417323226 1.0316199167  
F 2.0983097248 2.8490855917 11.3478190833  
F 1.4182256376 0.3926467308 11.3478190833  
F 3.8856061376 1.0318960650 11.3478190833  
F 2.8364512752 2.8490855917 5.1580995833  
F 1.0491548624 1.0318960650 5.1580995833  
F 3.5165353624 0.3926467308 5.1580995833  

K_POINTS automatic
2 2 2 1 1 1
