&CONTROL
  calculation = 'nscf',
  prefix = 'AlF3',
  outdir = './tmp',
  pseudo_dir = '../../Pseudo',
  verbosity = 'high',
  wf_collect = .true.,
/

&SYSTEM
  ibrav = 0,
  nat = 24,
  ntyp = 2,
  ecutwfc = 90.0,
  ecutrho = 720.0,
  occupations = 'smearing',
  smearing = 'gaussian',
  degauss = 0.01,
  nbnd = 144,
/

&ELECTRONS
  conv_thr = 1.0d-8,
  mixing_beta = 0.7,
/

ATOMIC_SPECIES
  Al 26.981538 Al.pbe-n-kjpaw_psl.1.0.0.UPF
  F 18.998403 F.pbe-n-kjpaw_psl.1.0.0.UPF

CELL_PARAMETERS angstrom
5.082582419  -0.000000000   0.000000000
-2.541291210   4.401645492  -0.000000000
0.000000000   0.000000000  12.632520467

ATOMIC_POSITIONS crystal
Al           -0.0000000000       -0.0000000000       -0.0000000000
Al           -0.0000000000       -0.0000000000        0.5000000000
Al            0.6666670000        0.3333330000        0.3333333390
Al            0.6666670000        0.3333330000        0.8333332078
Al            0.3333330000        0.6666670000        0.6666666610
Al            0.3333330000        0.6666670000        0.1666667922
F             0.4482248912        0.0000000274        0.2500000571
F            -0.0000000274        0.4482248638        0.2500000571
F             0.5517751362        0.5517751088        0.2500000571
F             0.5517751088       -0.0000000274        0.7499999429
F             0.0000000274        0.5517751362        0.7499999429
F             0.4482248638        0.4482248912        0.7499999429
F             0.1148909842        0.3333326933        0.5833334446
F             0.6666673067        0.7815572909        0.5833334446
F             0.2184427091        0.8851090158        0.5833334446
F             0.2184413231        0.3333327209        0.0833335015
F             0.6666672791        0.8851076022        0.0833335015
F             0.1148923978        0.7815586769        0.0833335015
F             0.7815586769        0.6666672791        0.9166664985
F             0.3333327209        0.1148923978        0.9166664985
F             0.8851076022        0.2184413231        0.9166664985
F             0.8851090158        0.6666673067        0.4166665554
F             0.3333326933        0.2184427091        0.4166665554
F             0.7815572909        0.1148909842        0.4166665554
K_POINTS automatic
6 6 6 1 1 1
